c preprocessed version of water, 21 vertices, 94 edges
p td 21 94
0 1
0 2
0 7
6 0
2 1
3 1
1 7
8 1
9 1
12 1
14 1
3 2
2 7
8 2
9 2
12 2
13 2
4 3
5 3
8 3
11 3
12 3
5 4
8 4
10 4
11 4
6 5
5 8
10 5
6 7
6 8
8 7
9 7
13 7
14 7
9 8
10 8
9 10
12 9
13 9
14 9
11 10
13 10
14 10
11 12
11 13
11 14
12 13
12 14
13 14
15 18
15 16
15 17
15 3
15 19
15 6
15 5
15 8
16 18
16 0
16 1
16 2
16 17
16 19
17 18
17 0
17 2
17 7
17 19
17 6
18 0
18 1
18 7
18 19
18 6
19 20
19 2
19 3
19 1
19 7
19 12
19 13
19 14
20 15
20 16
20 17
20 18
20 2
20 3
20 1
20 11
20 12
20 13
20 14
